! Solving for graph /home/truongxuanhieu/CPLEX-MIP-for-MinSpanLabeling/benchmarks/abp/Q-494_bus.mtx.rnd
! Target value is set to 113
! Lower bound is set to 114
! Upper bound is set to 247
! Time limit is set to 1800
! Vertices mode is set to No hole
Version identifier: 22.2.0.0 | 2026-05-04 | 5dff98e58
CPXPARAM_TimeLimit                               1800
Tried aggregator 2 times.
MIP Presolve eliminated 1 rows and 1295 columns.
MIP Presolve modified 243410 coefficients.
Aggregator did 1318 substitutions.
Reduced MIP has 3341 rows, 123416 columns, and 370762 nonzeros.
Reduced MIP has 122481 binaries, 935 generals, 0 SOSs, and 1172 indicators.
Presolve time = 0.39 sec. (357.00 ticks)
Probing fixed 11314 vars, tightened 0 bounds.
Probing time = 3.40 sec. (992.67 ticks)
Tried aggregator 1 time.
Detecting symmetries...
MIP Presolve eliminated 0 rows and 11314 columns.
Reduced MIP has 3341 rows, 112102 columns, and 336820 nonzeros.
Reduced MIP has 111167 binaries, 935 generals, 0 SOSs, and 1172 indicators.
Presolve time = 0.45 sec. (230.92 ticks)
Probing time = 0.19 sec. (31.12 ticks)
Clique table members: 73276.
MIP emphasis: balance optimality and feasibility.
MIP search method: dynamic search.
Parallel mode: deterministic, using up to 8 threads.
Root relaxation solution time = 0.26 sec. (180.88 ticks)

        Nodes                                         Cuts/
   Node  Left     Objective  IInf  Best Integer    Best Bound    ItCnt     Gap

      0     0      114.0000   815                    114.0000     1358         
      0     0      114.0000  1375                   Cuts: 935     3627         
      0     0      114.0000  1140                   Cuts: 935     5663         
      0     0      114.0000  1181                   Cuts: 935     7165         
      0     2      114.0000   806                    114.0000     7165         
Elapsed time = 23.39 sec. (18369.65 ticks, tree = 0.02 MB, solutions = 0)
     10     3      114.0000   798                    114.0000     7166         
     20    19      114.0000  1051                    114.0000     8543         
     60    34      114.0000  1014                    114.0000    15294         
    119   103      114.0000   892                    114.0000    19494         
    155   148      114.0000   922                    114.0000    22129         
    169   156      114.0000   759                    114.0000    22518         
    185   173      114.0000  1055                    114.0000    28975         
    193   131      227.0000  1107                    114.0000    24072         
    194   108      227.0000  1070                    114.0000    24812         
    200   179      227.0000  1114                    114.0000    42433         
Elapsed time = 32.36 sec. (22279.82 ticks, tree = 7.07 MB, solutions = 0)
    206   191      227.0000  1180                    114.0000    53459         
    209   211      227.0000  1178                    114.0000    92094         
    217   216      227.0000  1095                    114.0000    92699         
    275   244      227.0000   989                    114.0000    98610         
    317   268      227.0000  1003                    114.0000    99991         
    371   320      227.0000  1047                    114.0000   103228         
    437   346      228.0000   999                    114.0000   105026         
    559   440      227.0000  1009                    114.0000   119330         
    661   529      227.0000   998                    114.0000   126746         
    719   577      227.0000   965                    114.0000   127842         
Elapsed time = 50.40 sec. (32097.66 ticks, tree = 34.14 MB, solutions = 0)
    789   683      227.0000   980                    114.0000   137514         
    875   695      227.0000   974                    114.0000   139149         
    971   831      227.0000   960                    114.0000   149369         
   1082   961      227.0000  1025                    114.0000   159272         
   1189  1052      229.0000  1008                    114.0000   165108         
   1261  1160      227.0000   896                    114.0000   175577         
   1319  1236      227.0000   883                    114.0000   201564         
   1367  1258      228.0000   931                    114.0000   204781         
   1409  1307      247.0000   796                    114.0000   217352         
   1458  1376      247.0000   670                    114.0000   242514         
Elapsed time = 64.08 sec. (41723.11 ticks, tree = 93.52 MB, solutions = 0)
   1494  1428      247.0000   585                    114.0000   255685         
   1504  1447      247.0000   689                    114.0000   262018         
   1537  1465      247.0000   667                    114.0000   263676         
   1583  1500      247.0000   643                    114.0000   275972         
   1655  1543      247.0000   591                    114.0000   343830         
   1712  1579      247.0000   506                    114.0000   344954         
   1736  1538      227.0000   895                    114.0000   319571         
   1738  1547      245.0000  1306                    114.0000   359103         

Performing restart 1

Repeating presolve.
Tried aggregator 1 time.
Reduced MIP has 3341 rows, 112102 columns, and 336820 nonzeros.
Reduced MIP has 111167 binaries, 935 generals, 0 SOSs, and 1172 indicators.
Presolve time = 0.32 sec. (146.38 ticks)
Tried aggregator 1 time.
Reduced MIP has 3341 rows, 112102 columns, and 336820 nonzeros.
Reduced MIP has 111167 binaries, 935 generals, 0 SOSs, and 1172 indicators.
Presolve time = 0.50 sec. (230.82 ticks)
Represolve time = 4.74 sec. (879.03 ticks)
   1739     0      227.0000  1663                   Cuts: 935   394435         
   1739     0      227.0000  1604                   Cuts: 935   398098         
   1739     0      227.0000  1650                   Cuts: 901   400928         
   1739     0      227.0000  1890                   Cuts: 935   403606         
   1739     0      227.0000  1388                   Cuts: 508   406272         
   1739     0      227.0000  1300                   Cuts: 624   408610         
   1739     0      227.0000  1421                   Cuts: 935   411084         
*  1739+    0                          247.0000      227.0000             8.10%
   1739     2      227.0000   696      247.0000      227.0000   411126    8.10%
   1749     8      227.0000   577      247.0000      227.0000   411291    8.10%
Elapsed time = 157.15 sec. (137338.65 ticks, tree = 0.02 MB, solutions = 1)
   1815    40      227.0000   533      247.0000      227.0000   412020    8.10%
   1916   119      228.0000   579      247.0000      227.0000   415165    8.10%
   2103   229      231.0000   639      247.0000      227.0000   419407    8.10%
   2357   401      231.0000   581      247.0000      227.0000   426748    8.10%
   2617   686      236.0000   370      247.0000      227.0000   433915    8.10%
   2772   856      232.0000   344      247.0000      227.0000   439051    8.10%
   2947   969      236.0000   318      247.0000      227.0000   442311    8.10%
   3157  1120      227.0000   322      247.0000      227.0000   446280    8.10%
   3446  1380      232.0000   401      247.0000      227.0000   452838    8.10%
   3741  1652      236.0000   314      247.0000      227.0000   460689    8.10%
Elapsed time = 172.58 sec. (146943.70 ticks, tree = 103.60 MB, solutions = 1)
   4023  1880      234.0000   413      247.0000      227.0000   466292    8.10%
   4245  2105      230.0000   336      247.0000      227.0000   472063    8.10%
   4521  2403      232.0000   357      247.0000      227.0000   481724    8.10%
   4780  2624      245.0000   427      247.0000      227.0000   487862    8.10%
   5007  2810      238.0000   367      247.0000      227.0000   492814    8.10%
   5187  3016      227.0000   377      247.0000      227.0000   499063    8.10%
   5445  3192      246.0000   343      247.0000      227.0000   504333    8.10%
   5733  3485      245.0000   449      247.0000      227.0000   513730    8.10%
   5999  3600      244.0000   349      247.0000      227.0000   516829    8.10%
   6294  3933      245.0000   395      247.0000      227.0000   526046    8.10%
Elapsed time = 188.47 sec. (156527.55 ticks, tree = 262.01 MB, solutions = 1)
   6559  4148      245.0000   373      247.0000      227.0000   531355    8.10%
   6761  4321      245.0000   345      247.0000      227.0000   534730    8.10%
   7035  4677      246.0000   319      247.0000      227.0000   542715    8.10%
   7374  4843      245.0000   468      247.0000      227.0000   547236    8.10%
   7667  5071      246.0000   278      247.0000      227.0000   552452    8.10%
   7938  5483      246.0000   223      247.0000      227.0000   561602    8.10%
   8225  5606      246.0000   283      247.0000      227.0000   564375    8.10%
   8505  5962      246.0000   399      247.0000      227.0000   570654    8.10%
   8830  6257      227.0000   305      247.0000      227.0000   576162    8.10%
   9110  6501      246.0000   104      247.0000      227.0000   579922    8.10%
Elapsed time = 202.88 sec. (166104.08 ticks, tree = 440.99 MB, solutions = 1)
   9401  6801      227.0000   283      247.0000      227.0000   585876    8.10%
   9636  7043      242.0000   329      247.0000      227.0000   590047    8.10%
*  9705+ 6963                          246.0000      227.0000             7.72%
   9819  5475      227.0000   299      246.0000      227.0000   593684    7.72%
   9915  5560      227.0000   374      246.0000      227.0000   596057    7.72%
   9926  5625      245.0000   391      246.0000      227.0000   598437    7.72%
   9932  5687      245.0000   385      246.0000      227.0000   600909    7.72%
   9940  5693      245.0000   370      246.0000      227.0000   601359    7.72%
   9982  5714      227.0000   314      246.0000      227.0000   602205    7.72%
  10104  5745      227.0000   312      246.0000      227.0000   604157    7.72%
  10246  5871      227.0000   316      246.0000      227.0000   607476    7.72%
Elapsed time = 225.60 sec. (176256.00 ticks, tree = 394.96 MB, solutions = 2)
  10465  5903      227.0000   346      246.0000      227.0000   608378    7.72%
  10733  6090      228.0000   275      246.0000      227.0000   613065    7.72%
* 10861  6459      integral     0      245.0000      227.0000   620782    7.35%
  10956  6360      229.0000   328      245.0000      227.0000   619631    7.35%
  11162  5326      242.0000   354      245.0000      227.0000   625917    7.35%
  11430  5514      234.0000   328      245.0000      227.0000   631480    7.35%
  11702  5819      234.0000   346      245.0000      227.0000   640242    7.35%
  11955  5749      234.0000   310      245.0000      227.0000   638525    7.35%
  12267  6279      239.0000   323      245.0000      227.0000   652872    7.35%
  12541  6607      227.0000   277      245.0000      227.0000   660765    7.35%
  12771  6789      227.0000   273      245.0000      227.0000   665718    7.35%
Elapsed time = 241.79 sec. (185826.26 ticks, tree = 456.53 MB, solutions = 3)
  13047  6841      242.0000   296      245.0000      227.0000   667099    7.35%
  13317  7038      232.0000   290      245.0000      227.0000   673123    7.35%
  13624  7452      242.0000   296      245.0000      227.0000   683066    7.35%
  13952  7539      228.0000   322      245.0000      227.0000   685415    7.35%
  14273  7904      242.0000   419      245.0000      227.0000   695398    7.35%
  14549  8353      242.0000   331      245.0000      227.0000   705683    7.35%
  14698  8384      244.0000   335      245.0000      227.0000   706187    7.35%

Performing restart 2

Repeating presolve.
Tried aggregator 1 time.
MIP Presolve eliminated 1 rows and 1144 columns.
MIP Presolve modified 59337 coefficients.
Reduced MIP has 3340 rows, 110958 columns, and 380283 nonzeros.
Reduced MIP has 110023 binaries, 935 generals, 0 SOSs, and 1172 indicators.
Presolve time = 0.51 sec. (253.74 ticks)
Tried aggregator 1 time.
MIP Presolve eliminated 0 rows and 312 columns.
Reduced MIP has 3340 rows, 110646 columns, and 379249 nonzeros.
Reduced MIP has 109711 binaries, 935 generals, 0 SOSs, and 1172 indicators.
Presolve time = 0.56 sec. (228.41 ticks)
Represolve time = 7.09 sec. (1682.30 ticks)
  14733     0      227.0000  1677      245.0000     Cuts: 935   718349    7.35%
  14733     0      227.0000  1974      245.0000     Cuts: 935   721833    7.35%
  14733     0      227.0000  2056      245.0000     Cuts: 935   725471    7.35%
  14733     0      227.0000  2181      245.0000     Cuts: 935   729637    7.35%
  14733     0      227.0000  1710      245.0000     Cuts: 935   732883    7.35%
  14733     0      227.0000  1604      245.0000     Cuts: 541   736469    7.35%
* 14733+    0                          242.0000      227.0000             6.20%
  14733     0      227.0000  1246      242.0000     Cuts: 935   739147    6.20%
* 14733+    0                          241.0000      227.0000             5.81%
  14733     0      227.0000  1065      241.0000     Cuts: 506   741535    5.81%
  14733     0      227.0000  1297      241.0000     Cuts: 935   744154    5.81%
  14733     0      227.0000  1329      241.0000     Cuts: 935   747373    5.81%
* 14733+    0                          240.0000      227.0000             5.42%

Repeating presolve.
Tried aggregator 1 time.
MIP Presolve eliminated 7 rows and 2706 columns.
MIP Presolve modified 5953 coefficients.
Reduced MIP has 3333 rows, 107940 columns, and 405378 nonzeros.
Reduced MIP has 107005 binaries, 935 generals, 0 SOSs, and 1172 indicators.
Presolve time = 0.41 sec. (182.05 ticks)
Tried aggregator 1 time.
MIP Presolve eliminated 0 rows and 686 columns.
Reduced MIP has 3333 rows, 107254 columns, and 403088 nonzeros.
Reduced MIP has 106319 binaries, 935 generals, 0 SOSs, and 1172 indicators.
Presolve time = 0.58 sec. (237.42 ticks)
Represolve time = 7.03 sec. (2024.54 ticks)
  14733     0      227.0000  1800      240.0000     Cuts: 933   755462    5.42%
  14733     0      227.0000  1902      240.0000     Cuts: 933   759596    5.42%
  14733     0      227.0000  1723      240.0000     Cuts: 699   762819    5.42%
  14733     0      227.0000  1659      240.0000     Cuts: 717   766502    5.42%
  14733     0      227.0000  1414      240.0000     Cuts: 524   768705    5.42%
  14733     0      227.0000  1707      240.0000     Cuts: 933   771564    5.42%
* 14733+    0                          238.0000      227.0000             4.62%
  14733     0      227.0000  1134      238.0000     Cuts: 201   772894    4.62%
  14733     0      227.0000  1500      238.0000     Cuts: 933   775785    4.62%
  14733     0      227.0000  1453      238.0000     Cuts: 933   778443    4.62%
* 14733+    0                          237.0000      227.0000             4.22%
  14733     0      227.0000  1430      237.0000     Cuts: 933   781853    4.22%
* 14733+    0                          235.0000      227.0000             3.40%
  14733     0      227.0000  1260      235.0000     Cuts: 933   784975    3.40%
* 14733+    0                          234.0000      227.0000             2.99%
  14733     0      227.0000  1084      234.0000     Cuts: 933   787206    2.99%
  14733     0      227.0000  1296      234.0000     Cuts: 933   789609    2.99%
  14733     0      227.0000  1133      234.0000     Cuts: 933   791420    2.99%
* 14733+    0                          233.0000      227.0000             2.58%
  14733     0      227.0000  1159      233.0000     Cuts: 933   794466    2.58%
* 14733+    0                          232.0000      227.0000             2.16%
  14733     2      227.0000   572      232.0000      227.0000   794920    2.16%
  14747    16      227.0000   334      232.0000      227.0000   795339    2.16%
  15004   213      231.0000   269      232.0000      227.0000   803423    2.16%
Elapsed time = 614.88 sec. (594233.85 ticks, tree = 7.65 MB, solutions = 12)
  15279   417      231.0000   230      232.0000      227.0000   810478    2.16%
  15869   904      231.0000   391      232.0000      227.0000   825670    2.16%
  16509  1560      231.0000   185      232.0000      227.0000   848340    2.16%
  17184  2152      231.0000   211      232.0000      227.0000   868458    2.16%
  17873  2826      231.0000   197      232.0000      227.0000   896433    2.16%
  18668  3578      229.0000   313      232.0000      227.0000   924141    2.16%
* 19065  3826      integral     0      231.0000      227.0000   932474    1.73%
  19329  1216      228.0000   334      231.0000      227.0000   946929    1.73%
  19965  1816      228.0000   331      231.0000      227.0000   968320    1.73%
  20644  2375      228.0000   222      231.0000      227.0000   988895    1.73%
  21371  3045      228.0000   202      231.0000      227.0000  1015049    1.73%
Elapsed time = 678.75 sec. (632438.29 ticks, tree = 192.58 MB, solutions = 13)
  22153  3773      230.0000   156      231.0000      227.0000  1040984    1.73%
  22999  4576      230.0000   206      231.0000      227.0000  1071535    1.73%
* 23007+ 4404                          230.0000      227.0000             1.30%
  23644  1926      227.0000   175      230.0000      227.0000  1092171    1.30%
  24342  2715      229.0000   190      230.0000      227.0000  1118959    1.30%
  25030  3356      229.0000   234      230.0000      227.0000  1143629    1.30%
  25783  3921      228.0000   216      230.0000      227.0000  1166633    1.30%
  26558  4652      229.0000   283      230.0000      227.0000  1196908    1.30%
  27362  5323      229.0000   127      230.0000      227.0000  1227171    1.30%
  28261  6207      229.0000    56      230.0000      227.0000  1260129    1.30%
* 28364  5984      integral     0      229.0000      227.0000  1252786    0.87%
  29052  3420      228.0000   110      229.0000      227.0000  1285198    0.87%
Elapsed time = 732.64 sec. (670619.37 ticks, tree = 210.56 MB, solutions = 16)
  29782  4227      227.0000   200      229.0000      227.0000  1312717    0.87%
* 29973  4119      integral     0      228.0000      227.0000  1310127    0.44%
  30438  2035      227.0000   126      228.0000      227.0000  1336210    0.44%
  31148  2515      227.0000   139      228.0000      227.0000  1356147    0.44%
* 31768+ 2827                          227.0000      227.0000             0.00%
  31814  3113      227.0000   174      227.0000      227.0000  1381462    0.00%

GUB cover cuts applied:  221
Clique cuts applied:  16
Cover cuts applied:  5
Implied bound cuts applied:  5
Flow cuts applied:  3
Mixed integer rounding cuts applied:  20
Zero-half cuts applied:  7
Gomory fractional cuts applied:  1

Root node processing (before b&c):
  Real time             =   23.26 sec. (18322.99 ticks)
Parallel b&c, 8 threads:
  Real time             =  733.92 sec. (668778.70 ticks)
  Sync time (average)   =   80.44 sec.
  Wait time (average)   =    0.14 sec.
                          ------------
Total (root+branch&cut) =  757.18 sec. (687101.69 ticks)
! --------------------------------------------------------
! Solve = 1
! Status = Optimal
! Cplex status = Optimal
! Obj = 227
! BestBound = 227
! --------------------------------------------------------
! VERIFY FAILED: edge (311, 482) has distance 112 < 113
